15
29
82 55
46 46 68
68 42 46 82
52 43 55 15 74
72 43 23 72 23 61
42 23 43 31 52 23 42
51 23 41 62 21 55 23 33
55 31 29 42 46 31 31 15 29
29 41 79 21 82 33 77 37 62 51
74 51 21 51 58 37 37 33 46 21 65
23 11 64 51 46 51 51 33 29 41 42 61
72 52 31 43 65 29 46 31 51 23 59 11 62
46 21 51 64 23 59 33 37 11 37 61 55 23 59